c generated by sgen
p cnf 61 132
-2 -3 -4 0
-1 -3 -4 0
-1 -2 -4 0
-1 -2 -3 0
-6 -7 -8 0
-5 -7 -8 0
-5 -6 -8 0
-5 -6 -7 0
-10 -11 -12 0
-9 -11 -12 0
-9 -10 -12 0
-9 -10 -11 0
-14 -15 -16 0
-13 -15 -16 0
-13 -14 -16 0
-13 -14 -15 0
-18 -19 -20 0
-17 -19 -20 0
-17 -18 -20 0
-17 -18 -19 0
-22 -23 -24 0
-21 -23 -24 0
-21 -22 -24 0
-21 -22 -23 0
-26 -27 -28 0
-25 -27 -28 0
-25 -26 -28 0
-25 -26 -27 0
-30 -31 -32 0
-29 -31 -32 0
-29 -30 -32 0
-29 -30 -31 0
-34 -35 -36 0
-33 -35 -36 0
-33 -34 -36 0
-33 -34 -35 0
-38 -39 -40 0
-37 -39 -40 0
-37 -38 -40 0
-37 -38 -39 0
-42 -43 -44 0
-41 -43 -44 0
-41 -42 -44 0
-41 -42 -43 0
-46 -47 -48 0
-45 -47 -48 0
-45 -46 -48 0
-45 -46 -47 0
-50 -51 -52 0
-49 -51 -52 0
-49 -50 -52 0
-49 -50 -51 0
-54 -55 -56 0
-53 -55 -56 0
-53 -54 -56 0
-53 -54 -55 0
-57 -58 -59 0
-57 -58 -60 0
-57 -58 -61 0
-57 -59 -60 0
-57 -59 -61 0
-57 -60 -61 0
-58 -59 -60 0
-58 -59 -61 0
-58 -60 -61 0
-59 -60 -61 0
40 35 12 0
8 35 12 0
8 40 12 0
8 40 35 0
14 18 36 0
32 18 36 0
32 14 36 0
32 14 18 0
28 7 43 0
17 7 43 0
17 28 43 0
17 28 7 0
60 45 33 0
54 45 33 0
54 60 33 0
54 60 45 0
46 5 49 0
4 5 49 0
4 46 49 0
4 46 5 0
41 21 3 0
34 21 3 0
34 41 3 0
34 41 21 0
31 27 11 0
23 27 11 0
23 31 11 0
23 31 27 0
39 25 51 0
13 25 51 0
13 39 51 0
13 39 25 0
57 6 15 0
24 6 15 0
24 57 15 0
24 57 6 0
20 55 50 0
22 55 50 0
22 20 50 0
22 20 55 0
44 29 52 0
59 29 52 0
59 44 52 0
59 44 29 0
37 56 30 0
2 56 30 0
2 37 30 0
2 37 56 0
9 58 26 0
1 58 26 0
1 9 26 0
1 9 58 0
38 48 19 0
61 48 19 0
61 38 19 0
61 38 48 0
47 53 42 0
47 53 10 0
47 53 16 0
47 42 10 0
47 42 16 0
47 10 16 0
53 42 10 0
53 42 16 0
53 10 16 0
42 10 16 0
